(set-logic QF_UFLIA)
(set-info :author pomrehn@informatik.uni-freiburg.de)
(set-info :category "crafted")
(set-info :status unsat)
(set-info :simplyfied false)
(set-info :source "{ One conjunct is non-relaxing and can be simplified to false.}")
(set-option :strong-context-simplifier true)
(declare-fun A () Bool)
(simplify (and A (not A)))
(exit)